200
100
100
100
99
99
98
98
98
97
97
96
96
95
95
94
94
94
92
92
91
90
90
89
89
87
86
86
85
84
84
84
83
82
82
81
80
80
79
79
79
78
78
78
77
77
77
77
77
77
76
76
75
75
75
74
74
73
73
72
72
71
67
67
67
67
66
65
65
65
64
64
63
62
61
61
60
60
59
59
59
58
58
58
58
58
58
57
57
56
56
56
55
54
54
53
52
52
50
50
50
49
47
46
45
45
45
44
43
43
41
41
41
40
40
40
40
39
39
38
38
38
38
38
37
36
35
35
35
34
33
33
32
30
30
30
30
28
28
27
27
27
26
26
26
25
25
25
24
24
24
24
23
22
21
21
20
20
19
19
19
19
19
18
16
16
16
16
15
15
14
14
14
14
14
12
11
11
11
10
10
10
9
8
8
8
7
7
6
6
6
6
6
5
5
3
2
2
1
1
1
1
